p cnf 22 51
a 19 7 0
e 1 2 3 4 5 6 8 9 10 11 12 13 14 15 16 17 18 20 21 22 0
-4 -3 0
-4 -2 0
3 2 4 0
-2 4 -5 0
2 -4 -5 0
-2 -4 5 0
2 4 5 0
-6 -1 0
-6 -5 0
1 5 6 0
8 7 0
8 5 0
-7 -5 -8 0
9 -8 0
9 -2 0
8 2 -9 0
-11 7 0
-11 10 0
-7 -10 11 0
13 2 0
13 12 0
-2 -12 -13 0
-15 -14 0
-15 14 0
-16 13 0
-16 -15 0
-13 15 16 0
-17 14 -18 0
17 -14 -18 0
-17 -14 18 0
17 14 18 0
19 16 0
19 18 0
-16 -18 -19 0
11 19 -20 0
-11 -19 -20 0
11 -19 20 0
-11 19 20 0
-9 -20 -21 0
9 20 -21 0
-9 20 21 0
9 -20 21 0
22 -6 0
22 -21 0
6 21 -22 0
-11 17 9 15 16 8 -12 0
11 3 20 0
10 -16 21 -15 0
-18 13 -14 3 0
-5 -15 0
22 0
